benchmarks_vrp/CMT4/min_c/CMT4_9.vrp
NAME: CMT4_9
TYPE: CVRP
COMMENT: 1028.42 - Cluster Nr.9
DIMENSION: 9
CAPACITY: 200
EDGE_WEIGHT_TYPE: EUC_2D
NODE_COORD_TYPE: TWOD_COORDS
NODE_COORD_SECTION: 
2 55 20
9 57 29
5 58 27
3 67 5
4 35 35
1 65 20
7 63 23
8 60 12
6 59 15
DEPOT_SECTION: 
4
-1
DEMAND_SECTION: 
9 18
4 0
8 31
6 14
1 6
3 25
2 19
7 2
5 19
EOF
