benchmarks_vrp/CMT4/min_c/CMT4_9.tour
NAME: CMT4_9 solution
TYPE: TOUR
TOUR_SECTION:
4 2 6 8 3 1 7 5 9 -1
-1
EOF